NAME : instances/clustered-mixed-tsp/instance-42.tsp
COMMENT : No Comment
TYPE : TSP
DIMENSION: 50
EDGE_WEIGHT_TYPE : EUC_2D
NODE_COORD_SECTION
1 245 1753 
2 1338 212 
3 815 1315 
4 531 1946 
5 476 1027 
6 738 801 
7 338 1169 
8 653 315 
9 935 491 
10 1473 989 
11 1731 849 
12 584 88 
13 626 770 
14 276 670 
15 494 1414 
16 99 597 
17 1463 462 
18 384 1189 
19 1291 1876 
20 956 1056 
21 232 529 
22 1204 292 
23 1732 1268 
24 377 361 
25 1728 1622 
26 1099 1575 
27 614 392 
28 1779 1459 
29 854 472 
30 1230 1701 
31 547 1089 
32 89 345 
33 1154 482 
34 275 1216 
35 289 1853 
36 1968 710 
37 1422 1969 
38 724 502 
39 650 522 
40 1001 738 
41 1715 103 
42 726 1775 
43 441 1766 
44 1900 1267 
45 1668 121 
46 1561 1313 
47 5 320 
48 612 53 
49 508 1683 
50 1501 1403 
EOF
